1 -1 -2 0
1 -1 -3 0
1 -1 -4 0
1 -5 -6 0
1 -5 7 0
1 5 -1 0
1 -5 3 0
1 -5 4 0
1 8 -9 0
1 8 -10 0
1 8 -3 0
1 -10 9 0
1 10 -11 0
1 10 2 0
1 -10 -7 0
1 10 -12 0
1 10 8 0
1 -10 4 0
1 -7 -13 0
1 7 -10 0
1 7 -5 0
1 7 14 0
1 4 -15 0
1 -4 -16 0
1 4 -10 0
1 4 5 0
1 -4 17 0
1 4 -18 0
1 4 -8 0
1 -4 1 0
1 2 -16 0
1 2 19 0
1 -2 -5 0
1 -2 20 0
1 2 -21 0
1 2 -8 0
1 -2 1 0
1 2 -3 0
1 -3 -16 0
1 -3 -22 0
1 -3 2 0
1 3 8 0
1 -3 -1 0
1 18 -9 0
1 18 -7 0
1 18 12 0
1 18 -4 0
1 13 -23 0
1 13 22 0
1 -13 -7 0
1 -13 18 0
1 13 4 0
1 14 -9 0
1 -14 24 0
1 14 12 0
1 14 25 0
1 -26 9 0
1 26 -23 0
1 -26 -27 0
1 -26 19 0
1 -26 -24 0
1 -26 12 0
1 26 -14 0
1 26 25 0
1 28 -23 0
1 -28 13 0
1 -28 -10 0
1 -28 -29 0
1 28 30 0
1 -28 31 0
1 28 -14 0
1 28 8 0
1 23 -32 0
1 -23 -33 0
1 -23 34 0
1 -23 -26 0
1 23 -30 0
1 -23 14 0
1 23 -18 0
1 23 8 0
1 23 -35 0
1 12 36 0
1 -12 26 0
1 -12 -13 0
1 -12 -37 0
1 -12 17 0
1 12 -14 0
1 -9 36 0
1 9 -13 0
1 9 -10 0
1 9 -37 0
1 -9 -8 0
1 -31 -33 0
1 -31 -23 0
1 -31 27 0
1 -31 -28 0
1 31 -17 0
1 -31 38 0
1 31 -25 0
1 -33 23 0
1 -33 -16 0
1 -33 -38 0
1 30 23 0
1 30 27 0
1 32 -36 0
1 -32 -23 0
1 -32 -24 0
1 32 28 0
1 -25 32 0
1 -25 33 0
1 -25 24 0
1 25 -30 0
1 -25 -39 0
1 -24 33 0
1 24 -40 0
1 -24 30 0
1 24 31 0
1 -24 41 0
1 38 32 0
1 -38 -33 0
1 38 -26 0
1 38 -27 0
1 38 42 0
1 -38 -30 0
1 38 31 0
1 -38 43 0
1 -27 -42 0
1 -27 29 0
1 -27 30 0
1 27 -14 0
1 44 45 0
1 -44 6 0
1 44 46 0
1 -44 47 0
1 -6 -48 0
1 -6 5 0
1 6 49 0
1 -50 -51 0
1 -50 52 0
1 -50 53 0
1 -50 54 0
1 50 55 0
1 11 48 0
1 11 -51 0
1 11 56 0
1 -45 19 0
1 45 -57 0
1 -45 53 0
1 45 20 0
1 -45 -21 0
1 -45 -44 0
1 53 58 0
1 53 -22 0
1 53 59 0
1 48 -60 0
1 -48 -58 0
1 -48 61 0
1 48 11 0
1 48 -44 0
1 -46 -62 0
1 46 -63 0
1 46 64 0
1 46 -65 0
1 21 51 0
1 21 -2 0
1 21 -53 0
1 -21 54 0
1 -21 -55 0
1 21 65 0
1 21 -3 0
1 22 13 0
1 22 -52 0
1 -22 -53 0
1 22 55 0
1 -20 66 0
1 20 53 0
1 20 -67 0
1 20 -68 0
1 19 -55 0
1 19 26 0
1 19 -62 0
1 19 52 0
1 19 -69 0
1 19 -53 0
1 19 54 0
1 19 20 0
1 19 -67 0
1 19 -3 0
1 52 70 0
1 52 -55 0
1 -52 -36 0
1 -52 -16 0
1 -52 22 0
1 -52 -71 0
1 52 20 0
1 -52 -50 0
1 -55 16 0
1 -55 -19 0
1 55 -22 0
1 -55 -52 0
1 -55 11 0
1 -55 -72 0
1 55 -20 0
1 -55 -73 0
1 55 -21 0
1 55 -50 0
1 51 70 0
1 -51 58 0
1 51 19 0
1 -51 -74 0
1 -51 -72 0
1 -54 70 0
1 -54 -58 0
1 54 22 0
1 -54 -75 0
1 -54 64 0
1 -54 -76 0
1 54 -21 0
1 54 -50 0
1 -17 -9 0
1 17 -52 0
1 -17 69 0
1 17 2 0
1 -17 -7 0
1 -17 31 0
1 -17 -64 0
1 17 68 0
1 -17 3 0
1 -16 9 0
1 -16 33 0
1 16 66 0
1 -16 7 0
1 -16 -12 0
1 -16 -3 0
1 16 -4 0
1 -37 9 0
1 37 -69 0
1 37 66 0
1 37 77 0
1 37 78 0
1 -37 30 0
1 -37 75 0
1 37 -79 0
1 -36 15 0
1 -36 52 0
1 -36 69 0
1 -36 66 0
1 36 -77 0
1 36 -55 0
1 36 -67 0
1 -36 -68 0
1 -66 -36 0
1 66 -16 0
1 -66 -80 0
1 66 -81 0
1 -66 -82 0
1 -66 17 0
1 66 20 0
1 -66 83 0
1 66 84 0
1 -66 35 0
1 -68 -36 0
1 -68 66 0
1 68 80 0
1 68 -29 0
1 -68 -85 0
1 68 -17 0
1 68 20 0
1 69 70 0
1 -69 16 0
1 -69 -19 0
1 69 -86 0
1 69 -37 0
1 69 -87 0
1 67 -36 0
1 -67 69 0
1 67 -72 0
1 -67 -37 0
1 67 17 0
1 67 88 0
1 67 -83 0
1 67 -87 0
1 29 15 0
1 29 66 0
1 29 -77 0
1 -29 -72 0
1 -29 12 0
1 -29 -68 0
1 -35 9 0
1 35 -23 0
1 -35 -27 0
1 -35 29 0
1 -35 -12 0
1 35 -38 0
1 35 79 0
1 81 15 0
1 81 34 0
1 -81 -27 0
1 81 -66 0
1 81 -86 0
1 -81 -77 0
1 81 78 0
1 81 -89 0
1 -81 -38 0
1 -81 68 0
1 84 -34 0
1 84 -78 0
1 84 38 0
1 -78 -15 0
1 -78 -36 0
1 -78 81 0
1 -78 29 0
1 78 -90 0
1 78 41 0
1 15 -91 0
1 15 36 0
1 15 -92 0
1 15 93 0
1 15 -42 0
1 15 -81 0
1 -15 -78 0
1 15 -4 0
1 -15 -94 0
1 -15 -41 0
1 15 -84 0
1 15 35 0
1 -77 -81 0
1 77 2 0
1 77 29 0
1 -77 37 0
1 -77 95 0
1 77 -83 0
1 -77 -84 0
1 -77 35 0
1 79 -36 0
1 79 96 0
1 79 -81 0
1 79 -29 0
1 -79 83 0
1 -79 84 0
1 79 -97 0
1 42 15 0
1 42 27 0
1 42 24 0
1 -42 80 0
1 42 38 0
1 42 25 0
1 -42 41 0
1 -41 24 0
1 41 -89 0
1 -41 98 0
1 -41 38 0
1 41 -83 0
1 -93 -15 0
1 -93 34 0
1 -93 99 0
1 93 40 0
1 93 78 0
1 -93 -89 0
1 93 43 0
1 -93 -39 0
1 94 -99 0
1 -94 -40 0
1 -94 -78 0
1 94 -89 0
1 94 -98 0
1 -94 -95 0
1 -98 -100 0
1 98 101 0
1 98 -93 0
1 -98 42 0
1 98 -81 0
1 -98 -102 0
1 -98 28 0
1 -98 -103 0
1 -98 41 0
1 -98 -84 0
1 -34 -23 0
1 34 -100 0
1 -34 101 0
1 34 104 0
1 -34 81 0
1 34 -94 0
1 89 105 0
1 89 100 0
1 89 42 0
1 89 -81 0
1 89 -12 0
1 89 90 0
1 -89 94 0
1 -105 -9 0
1 105 -106 0
1 105 107 0
1 -105 -81 0
1 -105 -108 0
1 -105 -90 0
1 -105 94 0
1 105 -41 0
1 104 -99 0
1 -104 -92 0
1 -104 -43 0
1 -104 103 0
1 104 -39 0
1 103 34 0
1 -103 -99 0
1 -103 90 0
1 103 -39 0
1 -101 -99 0
1 -101 -40 0
1 -101 98 0
1 101 -39 0
1 109 99 0
1 -109 40 0
1 -109 -108 0
1 -109 43 0
1 -109 39 0
1 -39 -110 0
1 -39 -111 0
1 -39 109 0
1 39 -112 0
1 -40 110 0
1 40 101 0
1 -40 104 0
1 -40 -113 0
1 40 93 0
1 -40 39 0
1 -43 -110 0
1 43 99 0
1 -43 104 0
1 43 93 0
1 43 -111 0
1 -43 109 0
1 43 94 0
1 -99 101 0
1 -99 114 0
1 -99 -93 0
1 99 115 0
1 99 -103 0
1 47 116 0
1 47 49 0
1 -47 -117 0
1 -47 -118 0
1 -47 -44 0
1 -49 -116 0
1 49 -117 0
1 -49 118 0
1 -119 -116 0
1 -119 -117 0
1 -119 -120 0
1 119 121 0
1 56 -122 0
1 56 123 0
1 56 -124 0
1 56 -117 0
1 -56 121 0
1 56 120 0
1 -118 -62 0
1 -118 -122 0
1 118 61 0
1 118 56 0
1 118 125 0
1 118 -126 0
1 -118 -65 0
1 -122 -61 0
1 -122 125 0
1 -122 65 0
1 -122 47 0
1 117 127 0
1 117 56 0
1 -116 128 0
1 116 -56 0
1 116 -47 0
1 65 48 0
1 -65 -61 0
1 65 123 0
1 -65 124 0
1 65 -46 0
1 -65 -118 0
1 65 -121 0
1 61 -122 0
1 -61 22 0
1 61 -123 0
1 -61 120 0
1 61 121 0
1 -125 62 0
1 125 -122 0
1 125 129 0
1 -125 -130 0
1 125 118 0
1 -62 19 0
1 62 122 0
1 -62 -123 0
1 62 -121 0
1 121 -62 0
1 -121 61 0
1 -121 -56 0
1 -121 -124 0
1 -121 75 0
1 -121 65 0
1 -121 131 0
1 -124 132 0
1 124 58 0
1 -124 -56 0
1 -124 133 0
1 -124 -75 0
1 124 64 0
1 -124 -119 0
1 -120 134 0
1 -120 62 0
1 -120 -125 0
1 120 -135 0
1 120 119 0
1 -123 134 0
1 123 125 0
1 64 51 0
1 -64 -130 0
1 64 17 0
1 64 121 0
1 58 -48 0
1 58 45 0
1 58 51 0
1 58 53 0
1 -58 -54 0
1 75 136 0
1 -75 60 0
1 75 57 0
1 -75 -51 0
1 75 -37 0
1 75 -121 0
1 -132 36 0
1 -132 -57 0
1 132 -130 0
1 -132 -63 0
1 -132 -54 0
1 132 -59 0
1 132 121 0
1 -136 132 0
1 -136 -58 0
1 -136 -137 0
1 -136 -130 0
1 136 72 0
1 -136 75 0
1 -136 64 0
1 -136 -125 0
1 136 138 0
1 -130 -58 0
1 -130 -72 0
1 130 -64 0
1 139 -140 0
1 -139 -137 0
1 139 -141 0
1 139 -133 0
1 -139 75 0
1 -139 -64 0
1 -139 125 0
1 -139 138 0
1 -139 -142 0
1 129 134 0
1 129 -58 0
1 129 -62 0
1 -129 -143 0
1 -129 -141 0
1 -129 -133 0
1 129 64 0
1 -129 125 0
1 -129 -139 0
1 72 -70 0
1 72 60 0
1 72 -57 0
1 -72 -51 0
1 -72 -52 0
1 -72 130 0
1 -72 59 0
1 -72 55 0
1 -70 -136 0
1 70 -57 0
1 -70 -130 0
1 70 -72 0
1 70 -63 0
1 70 55 0
1 -86 -57 0
1 -86 -74 0
1 86 69 0
1 86 81 0
1 -86 59 0
1 86 -76 0
1 86 73 0
1 87 57 0
1 87 -59 0
1 87 73 0
1 -57 70 0
1 -57 45 0
1 -57 -96 0
1 57 -80 0
1 -57 86 0
1 57 72 0
1 57 59 0
1 57 -144 0
1 -57 95 0
1 57 87 0
1 -59 132 0
1 -59 -72 0
1 59 -53 0
1 -59 -145 0
1 -59 -95 0
1 -59 83 0
1 60 -48 0
1 60 -132 0
1 60 -146 0
1 -60 -137 0
1 60 86 0
1 -60 72 0
1 60 -75 0
1 -60 138 0
1 -60 -87 0
1 63 -132 0
1 -63 -147 0
1 63 86 0
1 63 -46 0
1 63 -148 0
1 -63 -144 0
1 -63 138 0
1 80 57 0
1 -80 -69 0
1 80 137 0
1 -80 59 0
1 -80 76 0
1 80 -73 0
1 80 67 0
1 -80 79 0
1 -83 -57 0
1 83 -74 0
1 83 69 0
1 83 -66 0
1 -83 -77 0
1 83 -59 0
1 -83 -76 0
1 83 73 0
1 83 -41 0
1 96 88 0
1 96 149 0
1 96 147 0
1 96 -73 0
1 96 -95 0
1 -96 79 0
1 -95 -57 0
1 -95 -74 0
1 -95 149 0
1 -95 -73 0
1 95 -150 0
1 95 85 0
1 -95 -79 0
1 71 73 0
1 -71 107 0
1 71 151 0
1 -71 -96 0
1 -71 108 0
1 -71 95 0
1 -71 -87 0
1 -73 -152 0
1 73 71 0
1 -73 -96 0
1 73 -108 0
1 73 -153 0
1 73 -83 0
1 74 154 0
1 74 155 0
1 -74 -96 0
1 -74 -83 0
1 74 87 0
1 76 156 0
1 -76 -74 0
1 -76 157 0
1 76 155 0
1 -76 -54 0
1 -76 95 0
1 76 -83 0
1 92 -85 0
1 92 -79 0
1 -90 -105 0
1 90 -92 0
1 90 149 0
1 90 82 0
1 -90 89 0
1 -90 88 0
1 -90 85 0
1 -107 91 0
1 107 -105 0
1 -107 157 0
1 107 149 0
1 -107 89 0
1 -107 97 0
1 -108 91 0
1 -108 105 0
1 108 107 0
1 108 82 0
1 108 -158 0
1 -108 109 0
1 -108 -159 0
1 -108 88 0
1 -108 -85 0
1 -82 -160 0
1 -82 107 0
1 -82 92 0
1 -82 -96 0
1 -82 66 0
1 -82 95 0
1 -82 85 0
1 -85 -160 0
1 -85 107 0
1 -85 92 0
1 85 96 0
1 -85 82 0
1 -85 -115 0
1 85 -102 0
1 -85 -108 0
1 85 -68 0
1 149 -152 0
1 -149 -107 0
1 149 88 0
1 -149 -92 0
1 -149 -69 0
1 149 -161 0
1 149 162 0
1 -149 -90 0
1 88 -160 0
1 88 163 0
1 -88 92 0
1 -88 96 0
1 -88 -149 0
1 -88 -164 0
1 -88 90 0
1 88 -165 0
1 -100 -91 0
1 -100 105 0
1 -100 -152 0
1 100 99 0
1 -100 -82 0
1 100 -158 0
1 -100 -98 0
1 100 -97 0
1 102 105 0
1 102 82 0
1 -102 98 0
1 -102 -43 0
1 102 -97 0
1 166 -91 0
1 -166 106 0
1 166 -167 0
1 -166 -99 0
1 -166 168 0
1 166 -43 0
1 115 -106 0
1 115 167 0
1 -115 -82 0
1 -115 158 0
1 -115 162 0
1 -115 85 0
1 168 110 0
1 168 100 0
1 168 169 0
1 -168 -115 0
1 168 -102 0
1 -168 -108 0
1 -91 -110 0
1 -91 -15 0
1 -91 -166 0
1 91 -170 0
1 91 -115 0
1 -91 171 0
1 -158 -169 0
1 158 -102 0
1 -158 108 0
1 -158 -97 0
1 -158 172 0
1 -97 160 0
1 -97 -166 0
1 -97 115 0
1 97 158 0
1 97 -102 0
1 -97 171 0
1 -97 79 0
1 -97 -172 0
1 110 -40 0
1 -110 173 0
1 -110 -174 0
1 110 43 0
1 -111 -91 0
1 -111 -167 0
1 111 -161 0
1 111 -173 0
1 -111 43 0
1 -175 106 0
1 175 167 0
1 -175 -114 0
1 -175 -170 0
1 -175 168 0
1 -175 173 0
1 175 -172 0
1 -170 -106 0
1 -170 -114 0
1 -170 176 0
1 -170 -177 0
1 -170 112 0
1 170 175 0
1 -174 -110 0
1 174 167 0
1 174 111 0
1 -174 178 0
1 167 166 0
1 -167 -179 0
1 -167 111 0
1 167 -115 0
1 -167 175 0
1 -173 110 0
1 173 106 0
1 173 -111 0
1 173 -115 0
1 173 89 0
1 -106 -166 0
1 -106 -180 0
1 106 -169 0
1 -106 -111 0
1 -106 115 0
1 106 173 0
1 -106 181 0
1 -106 171 0
1 -106 175 0
1 -182 114 0
1 182 -113 0
1 -182 179 0
1 -182 -177 0
1 -179 114 0
1 179 174 0
1 179 112 0
1 -178 183 0
1 -178 113 0
1 178 -112 0
1 178 -181 0
1 183 -112 0
1 -183 -167 0
1 -183 174 0
1 -183 177 0
1 112 179 0
1 -112 -170 0
1 112 182 0
1 112 -175 0
1 113 -183 0
1 113 178 0
1 113 182 0
1 177 114 0
1 -177 -179 0
1 177 175 0
1 -114 -183 0
1 -114 -179 0
1 114 -177 0
1 -114 178 0
1 114 -182 0
1 -114 -175 0
1 -133 134 0
1 133 184 0
1 -133 -123 0
1 133 129 0
1 133 72 0
1 133 127 0
1 133 -120 0
1 133 -121 0
1 133 -139 0
1 -134 -70 0
1 134 128 0
1 134 -184 0
1 -134 123 0
1 134 -124 0
1 134 127 0
1 -134 126 0
1 -134 -120 0
1 141 -185 0
1 141 -186 0
1 -141 129 0
1 -141 86 0
1 -141 135 0
1 -141 -131 0
1 141 139 0
1 141 142 0
1 142 -186 0
1 142 -129 0
1 -142 127 0
1 142 135 0
1 142 131 0
1 -142 87 0
1 126 134 0
1 -126 -133 0
1 126 138 0
1 184 134 0
1 184 141 0
1 184 133 0
1 184 126 0
1 184 -150 0
1 -127 -134 0
1 -127 -128 0
1 127 141 0
1 127 133 0
1 127 -117 0
1 -127 142 0
1 128 -134 0
1 -128 141 0
1 128 133 0
1 -128 127 0
1 137 136 0
1 137 184 0
1 -137 -185 0
1 -137 -186 0
1 -137 130 0
1 -137 -139 0
1 -138 -136 0
1 -138 60 0
1 -138 184 0
1 138 186 0
1 -138 -129 0
1 138 137 0
1 138 -83 0
1 147 184 0
1 -147 -185 0
1 147 -63 0
1 -147 -135 0
1 147 -126 0
1 147 150 0
1 -147 131 0
1 -147 -140 0
1 150 -187 0
1 150 60 0
1 150 185 0
1 150 -186 0
1 150 -143 0
1 -150 -188 0
1 -150 63 0
1 -150 126 0
1 150 -135 0
1 150 140 0
1 -131 189 0
1 131 155 0
1 131 150 0
1 -131 -121 0
1 131 138 0
1 131 -190 0
1 -131 142 0
1 -186 -189 0
1 -186 -157 0
1 186 155 0
1 -186 -147 0
1 -186 191 0
1 186 137 0
1 186 -141 0
1 186 -192 0
1 186 -144 0
1 -186 -131 0
1 186 -138 0
1 -135 -147 0
1 -135 -192 0
1 135 150 0
1 185 -137 0
1 185 -141 0
1 185 -138 0
1 -185 -142 0
1 155 187 0
1 -155 -92 0
1 -155 -59 0
1 -155 76 0
1 -144 60 0
1 144 57 0
1 144 -155 0
1 -144 -188 0
1 144 -76 0
1 157 187 0
1 157 -74 0
1 -157 -107 0
1 -157 186 0
1 -157 -148 0
1 -157 145 0
1 157 159 0
1 157 -131 0
1 -157 140 0
1 159 -157 0
1 -159 -143 0
1 -159 -145 0
1 -159 108 0
1 -159 -131 0
1 159 -140 0
1 187 -193 0
1 187 -163 0
1 187 152 0
1 187 155 0
1 -187 -162 0
1 -187 -144 0
1 187 -150 0
1 188 -187 0
1 -188 -193 0
1 188 -155 0
1 -188 147 0
1 188 130 0
1 -188 -194 0
1 -188 -162 0
1 -188 -195 0
1 -188 159 0
1 188 -150 0
1 -140 196 0
1 -140 -189 0
1 -140 159 0
1 140 144 0
1 140 150 0
1 140 -139 0
1 143 196 0
1 -143 -157 0
1 143 147 0
1 -143 -197 0
1 -143 198 0
1 -143 159 0
1 143 150 0
1 -143 140 0
1 152 -189 0
1 152 188 0
1 152 148 0
1 -152 -145 0
1 -152 -88 0
1 -164 187 0
1 164 199 0
1 -164 -74 0
1 -164 71 0
1 164 102 0
1 -164 -148 0
1 164 -192 0
1 164 -145 0
1 164 -73 0
1 -163 166 0
1 163 -146 0
1 -163 151 0
1 163 162 0
1 163 148 0
1 163 -145 0
1 163 88 0
1 -162 187 0
1 -162 163 0
1 162 -199 0
1 -162 -149 0
1 -162 188 0
1 162 -115 0
1 -162 -145 0
1 -162 153 0
1 -162 88 0
1 -199 -160 0
1 199 152 0
1 199 57 0
1 -199 200 0
1 199 -164 0
1 199 145 0
1 -145 160 0
1 145 152 0
1 145 200 0
1 145 -161 0
1 -145 59 0
1 145 172 0
1 -146 -201 0
1 146 -163 0
1 -146 60 0
1 146 -152 0
1 -146 157 0
1 146 -194 0
1 146 -162 0
1 -146 -164 0
1 -146 159 0
1 -148 201 0
1 148 163 0
1 148 -146 0
1 -148 -152 0
1 148 157 0
1 -148 202 0
1 -160 110 0
1 -160 -193 0
1 -160 82 0
1 -160 161 0
1 -160 156 0
1 -160 85 0
1 161 160 0
1 -161 149 0
1 -161 -82 0
1 161 -111 0
1 161 -156 0
1 -161 -153 0
1 161 85 0
1 172 -145 0
1 -172 -156 0
1 -172 -203 0
1 176 154 0
1 -176 -151 0
1 -176 -172 0
1 -176 -204 0
1 -176 158 0
1 -151 -160 0
1 151 -71 0
1 -151 161 0
1 -151 -162 0
1 151 181 0
1 -151 -172 0
1 -153 160 0
1 153 180 0
1 153 161 0
1 153 -73 0
1 153 -171 0
1 -153 -172 0
1 154 163 0
1 -154 -205 0
1 154 200 0
1 -154 -161 0
1 -154 -156 0
1 -156 163 0
1 -156 -162 0
1 156 76 0
1 171 -106 0
1 -171 151 0
1 171 169 0
1 -171 206 0
1 -171 158 0
1 171 -168 0
1 -171 203 0
1 171 -97 0
1 169 -106 0
1 -169 -200 0
1 -169 158 0
1 169 203 0
1 169 153 0
1 181 180 0
1 181 151 0
1 -181 206 0
1 -181 173 0
1 181 -153 0
1 181 -178 0
1 181 203 0
1 -180 -106 0
1 180 206 0
1 180 -204 0
1 180 153 0
1 180 -181 0
1 180 203 0
1 -204 169 0
1 -204 176 0
1 -203 180 0
1 -203 -204 0
1 203 172 0
1 -206 -180 0
1 -206 176 0
1 -206 -165 0
1 -206 -172 0
1 165 169 0
1 165 -172 0
1 189 207 0
1 -189 -208 0
1 189 -186 0
1 189 -209 0
1 189 -135 0
1 189 131 0
1 189 140 0
1 192 -207 0
1 192 208 0
1 192 186 0
1 192 -143 0
1 192 -164 0
1 192 -140 0
1 -196 163 0
1 -196 -208 0
1 196 210 0
1 196 191 0
1 196 143 0
1 196 211 0
1 196 190 0
1 196 -140 0
1 198 207 0
1 -198 -210 0
1 198 191 0
1 -198 -143 0
1 -198 209 0
1 198 211 0
1 212 201 0
1 -212 -196 0
1 212 -208 0
1 -212 202 0
1 212 194 0
1 212 198 0
1 -208 189 0
1 -208 -184 0
1 -208 194 0
1 208 -198 0
1 -208 192 0
1 -209 -196 0
1 -209 189 0
1 209 -207 0
1 209 -198 0
1 209 -192 0
1 209 127 0
1 -207 -189 0
1 207 -128 0
1 207 198 0
1 193 160 0
1 -193 -187 0
1 193 -146 0
1 -193 208 0
1 -193 -210 0
1 193 -191 0
1 193 -143 0
1 -193 194 0
1 -193 148 0
1 -193 -211 0
1 194 187 0
1 -194 -193 0
1 194 -146 0
1 194 -210 0
1 -194 161 0
1 194 -188 0
1 -194 148 0
1 194 -212 0
1 194 -211 0
1 194 140 0
1 -201 146 0
1 -201 -191 0
1 -201 -212 0
1 -202 213 0
1 202 214 0
1 -202 146 0
1 202 191 0
1 202 -212 0
1 202 211 0
1 -202 190 0
1 190 205 0
1 191 -201 0
1 191 -193 0
1 191 186 0
1 -191 200 0
1 191 194 0
1 -191 190 0
1 -211 -201 0
1 211 -193 0
1 -211 196 0
1 -211 -210 0
1 -211 202 0
1 -211 198 0
1 -210 201 0
1 210 193 0
1 210 196 0
1 -210 202 0
1 -210 -194 0
1 210 -198 0
1 200 -213 0
1 200 -214 0
1 -200 -146 0
1 -200 -199 0
1 -200 -169 0
1 -200 -191 0
1 -200 -197 0
1 200 -195 0
1 -215 154 0
1 -215 205 0
1 215 -191 0
1 215 195 0
1 -215 -156 0
1 -205 -213 0
1 -205 214 0
1 205 -180 0
1 -205 -195 0
1 -205 156 0
1 205 -190 0
1 -214 -201 0
1 195 201 0
1 -195 -202 0
1 -195 -188 0
1 -195 215 0
1 213 -205 0
1 -213 202 0
1 213 197 0
1 -213 215 0
1 -213 140 0
1 -197 200 0
1 -197 -143 0
1 197 -215 0
